# Solution for model GasLib-40
# Objective value = 3.7946391822029874e+01
loadshed[innode_1] 0
loadshed[innode_2] 0
loadshed[innode_3] 0
loadshed[innode_4] 0
loadshed[innode_5] 0
loadshed[innode_6] 0
loadshed[innode_7] 0
loadshed[innode_8] 0
loadshed[source_1] -8.5896686885453155e-02
loadshed[source_2] 7.2799142500305725e-02
loadshed[source_3] 2.5312743335379806e-01
loadshed[sink_1] 0
loadshed[sink_2] 0
loadshed[sink_3] 0
loadshed[sink_4] 0
loadshed[sink_5] 0
loadshed[sink_6] 0
loadshed[sink_7] 0
loadshed[sink_8] 0
loadshed[sink_9] 0
loadshed[sink_10] 0
loadshed[sink_11] 0
loadshed[sink_12] 1
loadshed[sink_13] 0
loadshed[sink_14] 0
loadshed[sink_15] 0
loadshed[sink_16] 0
loadshed[sink_17] 0
loadshed[sink_18] 0
loadshed[sink_19] 0
loadshed[sink_20] 0
loadshed[sink_21] 1
loadshed[sink_22] 0
loadshed[sink_23] 0
loadshed[sink_24] 3.2028892669736791e-01
loadshed[sink_25] 0
loadshed[sink_26] 0
loadshed[sink_27] 0
loadshed[sink_28] 0
loadshed[sink_29] 0
flow[source_1,sink_3] 1.7166970886768985e+02
flow[innode_1,sink_16] 1.6354166666666970e+01
flow[innode_6,sink_13] -3.59412485903286
flow[sink_13,sink_14] -1.9948291525699528e+01
flow[sink_14,sink_10] -3.6302458192366196e+01
flow[sink_25,sink_26] 1.3032878659442997e+02
flow[sink_26,sink_9] 3.2708333333334551e+01
flow[sink_9,sink_18] 1.6354166666667879e+01
flow[sink_26,sink_4] 8.1266286594428749e+01
flow[sink_4,sink_20] -1.5619566058791099e+01
flow[sink_18,sink_6] 0
flow[sink_25,innode_8] -1.3896137553435349e+02
flow[sink_6,sink_7] -4.9062500000000313e+01
flow[sink_6,sink_22] 3.2708333333333641e+01
flow[sink_7,sink_24] 1.1116108177970128e+01
flow[sink_22,sink_1] 1.6354166666666970e+01
flow[sink_24,sink_21] 0
flow[sink_21,sink_12] 0
flow[sink_7,sink_5] -76.5327748446371
flow[sink_5,sink_17] -9.2886941511303775e+01
flow[sink_17,sink_4] -8.0531685986553185e+01
flow[sink_17,sink_8] -2.8709422191417250e+01
flow[sink_3,sink_23] 16.3541666666697
flow[sink_8,sink_20] -4.5063588858083918e+01
flow[sink_25,sink_20] 7.7037321583541683e+01
flow[sink_25,sink_15] -8.1164774451252512e+01
flow[sink_15,sink_29] -55.3248749196144
flow[sink_29,sink_28] 1.6354166666667879e+01
flow[sink_29,sink_2] 5.8548232864971439e+01
flow[sink_2,sink_15] 4.2194066198304775e+01
flow[sink_29,innode_7] -1.4658144111792041e+02
flow[innode_4,sink_19] 4.5723596328541227e+01
flow[sink_19,innode_3] 4.1657739272582212e+01
flow[innode_4,innode_5] 7.2349695197158681e+01
flow[sink_27,innode_5] -7.2349695197158681e+01
flow[sink_27,sink_19] 5.5995528530492010e+01
flow[sink_10,sink_11] 3.2708333333333641e+01
flow[sink_10,innode_2] -4.3707218919784289e+01
flow[sink_10,innode_3] -4.1657739272582212e+01
flow[innode_6,sink_25] 3.59412485903286
flow[sink_11,innode_1] 1.6354166666666970e+01
flow[sink_19,innode_2] 4.3707218919784289e+01
flow[source_3,innode_4] 1.1807329152569991e+02
flow[source_2,innode_7] 1.4658144111792041e+02
flow[sink_3,innode_8] 1.3896137553435349e+02
pressure[innode_1] 7.6699062264102892e+01
pressure[innode_2] 7.9160870608343330e+01
pressure[innode_3] 7.9068624261951427e+01
pressure[innode_4] 81.01325
pressure[innode_5] 8.0963484064632155e+01
pressure[innode_6] 7.5078195296541224e+01
pressure[innode_7] 81.01325
pressure[innode_8] 8.0439423743461120e+01
pressure[source_1] 81.01325
pressure[source_2] 81.01325
pressure[source_3] 81.01325
pressure[sink_1] 1.0965776801729470e+01
pressure[sink_2] 7.5609677868073263e+01
pressure[sink_3] 8.0439423743461120e+01
pressure[sink_4] 55.5668093903927
pressure[sink_5] 4.5569748160518230e+01
pressure[sink_6] 1.3066854412116843e+01
pressure[sink_7] 1.3740365589816975e+01
pressure[sink_8] 5.3572434981539772e+01
pressure[sink_9] 63.9415372266628
pressure[sink_10] 7.6850763571706437e+01
pressure[sink_11] 7.6699062264102892e+01
pressure[sink_12] 1.01325
pressure[sink_13] 75.098009106255
pressure[sink_14] 7.5133708273158959e+01
pressure[sink_15] 7.5471923541358208e+01
pressure[sink_16] 7.5677412429285212e+01
pressure[sink_17] 5.2489153897012827e+01
pressure[sink_18] 63.3497947328631
pressure[sink_19] 7.9160870608343330e+01
pressure[sink_20] 56.712733383484
pressure[sink_21] 1.01325
pressure[sink_22] 1.2029545944084481e+01
pressure[sink_23] 8.0274705731801333e+01
pressure[sink_24] 1.01325
pressure[sink_25] 7.5078195296541224e+01
pressure[sink_26] 6.5899215394547412e+01
pressure[sink_27] 80.3631152823578
pressure[sink_28] 7.6797488408614285e+01
pressure[sink_29] 7.7092770682231475e+01
interdiction[source_1,sink_3] 0
interdiction[innode_1,sink_16] 0
interdiction[innode_6,sink_13] 0
interdiction[sink_13,sink_14] 0
interdiction[sink_14,sink_10] 0
interdiction[sink_25,sink_26] 0
interdiction[sink_26,sink_9] 0
interdiction[sink_9,sink_18] 0
interdiction[sink_26,sink_4] 0
interdiction[sink_4,sink_20] 0
interdiction[sink_18,sink_6] 1
interdiction[sink_25,innode_8] 0
interdiction[sink_6,sink_7] 0
interdiction[sink_6,sink_22] 0
interdiction[sink_7,sink_24] 0
interdiction[sink_22,sink_1] 0
interdiction[sink_24,sink_21] 0
interdiction[sink_21,sink_12] 0
interdiction[sink_7,sink_5] 0
interdiction[sink_5,sink_17] 0
interdiction[sink_17,sink_4] 0
interdiction[sink_17,sink_8] 0
interdiction[sink_3,sink_23] 0
interdiction[sink_8,sink_20] 0
interdiction[sink_25,sink_20] 0
interdiction[sink_25,sink_15] 0
interdiction[sink_15,sink_29] 0
interdiction[sink_29,sink_28] 0
interdiction[sink_29,sink_2] 0
interdiction[sink_2,sink_15] 0
interdiction[sink_29,innode_7] 0
interdiction[innode_4,sink_19] 0
interdiction[sink_19,innode_3] 0
interdiction[innode_4,innode_5] 0
interdiction[sink_27,innode_5] 0
interdiction[sink_27,sink_19] 0
interdiction[sink_10,sink_11] 0
interdiction[sink_10,innode_2] 0
interdiction[sink_10,innode_3] 0
interdiction[innode_6,sink_25] 0
interdiction[sink_11,innode_1] 0
interdiction[sink_19,innode_2] 0
interdiction[source_3,innode_4] 0
interdiction[source_2,innode_7] 0
interdiction[sink_3,innode_8] 0
WCcheckFlow[source_1,sink_3] 39
WCcheckFlow[innode_1,sink_16] 1
WCcheckFlow[innode_6,sink_13] 13
WCcheckFlow[sink_13,sink_14] 12
WCcheckFlow[sink_14,sink_10] 11
WCcheckFlow[sink_25,sink_26] 15
WCcheckFlow[sink_26,sink_9] 2
WCcheckFlow[sink_9,sink_18] 1
WCcheckFlow[sink_26,sink_4] 12
WCcheckFlow[sink_4,sink_20] 1
WCcheckFlow[sink_18,sink_6] 0
WCcheckFlow[sink_25,innode_8] -36
WCcheckFlow[sink_6,sink_7] -3
WCcheckFlow[sink_6,sink_22] 2
WCcheckFlow[sink_7,sink_24] 3
WCcheckFlow[sink_22,sink_1] 1
WCcheckFlow[sink_24,sink_21] 2
WCcheckFlow[sink_21,sink_12] 1
WCcheckFlow[sink_7,sink_5] -7
WCcheckFlow[sink_5,sink_17] -8
WCcheckFlow[sink_17,sink_4] -10
WCcheckFlow[sink_17,sink_8] 1
WCcheckFlow[sink_3,sink_23] 1
WCcheckFlow[sink_8,sink_20] 0
WCcheckFlow[sink_25,sink_20] 0
WCcheckFlow[sink_25,sink_15] 6
WCcheckFlow[sink_15,sink_29] 5
WCcheckFlow[sink_29,sink_28] 1
WCcheckFlow[sink_29,sink_2] 1
WCcheckFlow[sink_2,sink_15] 0
WCcheckFlow[sink_29,innode_7] 2
WCcheckFlow[innode_4,sink_19] -4
WCcheckFlow[sink_19,innode_3] -5
WCcheckFlow[innode_4,innode_5] 2
WCcheckFlow[sink_27,innode_5] -1
WCcheckFlow[sink_27,sink_19] 0
WCcheckFlow[sink_10,sink_11] 3
WCcheckFlow[sink_10,innode_2] 1
WCcheckFlow[sink_10,innode_3] 6
WCcheckFlow[innode_6,sink_25] -14
WCcheckFlow[sink_11,innode_1] 2
WCcheckFlow[sink_19,innode_2] 0
WCcheckFlow[source_3,innode_4] -1
WCcheckFlow[source_2,innode_7] -1
WCcheckFlow[sink_3,innode_8] 37
